p edge 153 1135
e 0 3  1
e 0 4  1
e 0 6  1
e 0 7  1
e 0 8  1
e 0 9  1
e 0 10  1
e 0 11  1
e 0 12  1
e 0 13  1
e 0 15  1
e 0 16  1
e 0 17  1
e 0 18  1
e 0 19  1
e 0 20  1
e 1 2  1
e 1 3  1
e 1 4  1
e 1 6  1
e 1 7  1
e 1 8  1
e 1 9  1
e 1 10  1
e 1 11  1
e 1 12  1
e 1 13  1
e 1 15  1
e 1 16  1
e 1 17  1
e 1 18  1
e 1 19  1
e 1 20  1
e 2 6  1
e 2 7  1
e 2 8  1
e 2 9  1
e 2 10  1
e 2 11  1
e 2 15  1
e 2 16  1
e 2 17  1
e 2 18  1
e 2 19  1
e 2 20  1
e 3 4  1
e 3 6  1
e 3 8  1
e 3 18  1
e 3 20  1
e 5 6  1
e 5 8  1
e 5 18  1
e 5 20  1
e 6 7  1
e 6 8  1
e 6 9  1
e 6 24  1
e 6 25  1
e 7 8  1
e 7 22  1
e 7 24  1
e 7 25  1
e 7 31  1
e 7 32  1
e 8 20  1
e 8 31  1
e 8 32  1
e 9 10  1
e 9 11  1
e 9 12  1
e 9 14  1
e 9 18  1
e 9 20  1
e 9 21  1
e 9 22  1
e 10 11  1
e 10 21  1
e 10 22  1
e 10 25  1
e 10 28  1
e 10 29  1
e 11 12  1
e 11 14  1
e 11 17  1
e 11 18  1
e 11 20  1
e 11 28  1
e 11 29  1
e 12 13  1
e 12 15  1
e 12 17  1
e 14 15  1
e 14 17  1
e 15 16  1
e 15 17  1
e 15 18  1
e 15 30  1
e 15 31  1
e 16 17  1
e 16 25  1
e 16 26  1
e 16 28  1
e 16 30  1
e 16 31  1
e 17 25  1
e 17 26  1
e 18 19  1
e 18 20  1
e 18 27  1
e 18 28  1
e 19 20  1
e 19 22  1
e 19 23  1
e 19 27  1
e 19 28  1
e 19 31  1
e 20 22  1
e 20 23  1
e 21 22  1
e 21 23  1
e 21 33  1
e 21 34  1
e 21 35  1
e 21 39  1
e 21 40  1
e 22 23  1
e 22 33  1
e 22 34  1
e 22 35  1
e 22 37  1
e 22 39  1
e 22 40  1
e 22 49  1
e 22 50  1
e 23 33  1
e 23 34  1
e 23 35  1
e 23 49  1
e 23 50  1
e 24 25  1
e 24 26  1
e 24 36  1
e 24 37  1
e 24 42  1
e 24 43  1
e 24 44  1
e 25 26  1
e 25 36  1
e 25 37  1
e 25 40  1
e 25 42  1
e 25 43  1
e 25 44  1
e 25 46  1
e 25 47  1
e 26 42  1
e 26 43  1
e 26 44  1
e 26 46  1
e 26 47  1
e 27 28  1
e 27 29  1
e 27 42  1
e 27 43  1
e 27 44  1
e 27 48  1
e 27 49  1
e 28 29  1
e 28 40  1
e 28 41  1
e 28 42  1
e 28 43  1
e 28 44  1
e 28 46  1
e 28 48  1
e 28 49  1
e 29 40  1
e 29 41  1
e 29 42  1
e 29 43  1
e 29 44  1
e 30 31  1
e 30 32  1
e 30 33  1
e 30 34  1
e 30 35  1
e 30 45  1
e 30 46  1
e 31 32  1
e 31 33  1
e 31 34  1
e 31 35  1
e 31 37  1
e 31 38  1
e 31 45  1
e 31 46  1
e 31 49  1
e 32 33  1
e 32 34  1
e 32 35  1
e 32 37  1
e 32 38  1
e 33 34  1
e 33 36  1
e 33 38  1
e 33 48  1
e 33 50  1
e 35 36  1
e 35 38  1
e 35 48  1
e 35 50  1
e 36 37  1
e 36 38  1
e 36 39  1
e 36 54  1
e 36 55  1
e 37 38  1
e 37 52  1
e 37 54  1
e 37 55  1
e 37 61  1
e 37 62  1
e 38 50  1
e 38 61  1
e 38 62  1
e 39 40  1
e 39 41  1
e 39 42  1
e 39 44  1
e 39 48  1
e 39 50  1
e 39 51  1
e 39 52  1
e 40 41  1
e 40 51  1
e 40 52  1
e 40 55  1
e 40 58  1
e 40 59  1
e 41 42  1
e 41 44  1
e 41 47  1
e 41 48  1
e 41 50  1
e 41 58  1
e 41 59  1
e 42 43  1
e 42 45  1
e 42 47  1
e 44 45  1
e 44 47  1
e 45 46  1
e 45 47  1
e 45 48  1
e 45 60  1
e 45 61  1
e 46 47  1
e 46 55  1
e 46 56  1
e 46 58  1
e 46 60  1
e 46 61  1
e 47 55  1
e 47 56  1
e 48 49  1
e 48 50  1
e 48 57  1
e 48 58  1
e 49 50  1
e 49 52  1
e 49 53  1
e 49 57  1
e 49 58  1
e 49 61  1
e 50 52  1
e 50 53  1
e 51 52  1
e 51 53  1
e 51 63  1
e 51 64  1
e 51 65  1
e 51 69  1
e 51 70  1
e 52 53  1
e 52 63  1
e 52 64  1
e 52 65  1
e 52 67  1
e 52 69  1
e 52 70  1
e 52 79  1
e 52 80  1
e 53 63  1
e 53 64  1
e 53 65  1
e 53 79  1
e 53 80  1
e 54 55  1
e 54 56  1
e 54 66  1
e 54 67  1
e 54 72  1
e 54 73  1
e 54 74  1
e 55 56  1
e 55 66  1
e 55 67  1
e 55 70  1
e 55 72  1
e 55 73  1
e 55 74  1
e 55 76  1
e 55 77  1
e 56 72  1
e 56 73  1
e 56 74  1
e 56 76  1
e 56 77  1
e 57 58  1
e 57 59  1
e 57 72  1
e 57 73  1
e 57 74  1
e 57 78  1
e 57 79  1
e 58 59  1
e 58 70  1
e 58 71  1
e 58 72  1
e 58 73  1
e 58 74  1
e 58 76  1
e 58 78  1
e 58 79  1
e 59 70  1
e 59 71  1
e 59 72  1
e 59 73  1
e 59 74  1
e 60 61  1
e 60 62  1
e 60 63  1
e 60 64  1
e 60 65  1
e 60 75  1
e 60 76  1
e 61 62  1
e 61 63  1
e 61 64  1
e 61 65  1
e 61 67  1
e 61 68  1
e 61 75  1
e 61 76  1
e 61 79  1
e 62 63  1
e 62 64  1
e 62 65  1
e 62 67  1
e 62 68  1
e 63 64  1
e 63 66  1
e 63 68  1
e 63 78  1
e 63 80  1
e 65 66  1
e 65 68  1
e 65 78  1
e 65 80  1
e 66 67  1
e 66 68  1
e 66 69  1
e 66 81  1
e 66 82  1
e 66 83  1
e 66 84  1
e 66 85  1
e 66 86  1
e 66 90  1
e 66 91  1
e 66 92  1
e 67 68  1
e 67 81  1
e 67 82  1
e 67 83  1
e 67 84  1
e 67 85  1
e 67 86  1
e 67 90  1
e 67 91  1
e 67 92  1
e 68 80  1
e 68 81  1
e 68 82  1
e 68 83  1
e 68 84  1
e 68 85  1
e 68 86  1
e 68 90  1
e 68 91  1
e 68 92  1
e 69 70  1
e 69 71  1
e 69 72  1
e 69 74  1
e 69 78  1
e 69 80  1
e 69 81  1
e 69 82  1
e 69 83  1
e 69 84  1
e 69 85  1
e 69 86  1
e 69 87  1
e 69 88  1
e 69 89  1
e 70 71  1
e 70 81  1
e 70 82  1
e 70 83  1
e 70 84  1
e 70 85  1
e 70 86  1
e 70 87  1
e 70 88  1
e 70 89  1
e 71 72  1
e 71 74  1
e 71 77  1
e 71 78  1
e 71 80  1
e 71 81  1
e 71 82  1
e 71 83  1
e 71 84  1
e 71 85  1
e 71 86  1
e 71 87  1
e 71 88  1
e 71 89  1
e 72 73  1
e 72 75  1
e 72 77  1
e 74 75  1
e 74 77  1
e 75 76  1
e 75 77  1
e 75 78  1
e 75 84  1
e 75 85  1
e 75 86  1
e 75 87  1
e 75 88  1
e 75 89  1
e 75 90  1
e 75 91  1
e 75 92  1
e 76 77  1
e 76 84  1
e 76 85  1
e 76 86  1
e 76 87  1
e 76 88  1
e 76 89  1
e 76 90  1
e 76 91  1
e 76 92  1
e 77 84  1
e 77 85  1
e 77 86  1
e 77 87  1
e 77 88  1
e 77 89  1
e 77 90  1
e 77 91  1
e 77 92  1
e 78 79  1
e 78 80  1
e 78 81  1
e 78 82  1
e 78 83  1
e 78 87  1
e 78 88  1
e 78 89  1
e 78 90  1
e 78 91  1
e 78 92  1
e 79 80  1
e 79 81  1
e 79 82  1
e 79 83  1
e 79 87  1
e 79 88  1
e 79 89  1
e 79 90  1
e 79 91  1
e 79 92  1
e 80 81  1
e 80 82  1
e 80 83  1
e 80 87  1
e 80 88  1
e 80 89  1
e 80 90  1
e 80 91  1
e 80 92  1
e 81 82  1
e 81 83  1
e 81 93  1
e 81 94  1
e 81 95  1
e 81 96  1
e 81 97  1
e 81 98  1
e 81 102  1
e 81 103  1
e 81 104  1
e 82 83  1
e 82 93  1
e 82 94  1
e 82 95  1
e 82 96  1
e 82 97  1
e 82 98  1
e 82 102  1
e 82 103  1
e 82 104  1
e 83 93  1
e 83 94  1
e 83 95  1
e 83 96  1
e 83 97  1
e 83 98  1
e 83 102  1
e 83 103  1
e 83 104  1
e 84 85  1
e 84 86  1
e 84 93  1
e 84 94  1
e 84 95  1
e 84 96  1
e 84 97  1
e 84 98  1
e 84 99  1
e 84 100  1
e 84 101  1
e 85 86  1
e 85 93  1
e 85 94  1
e 85 95  1
e 85 96  1
e 85 97  1
e 85 98  1
e 85 99  1
e 85 100  1
e 85 101  1
e 86 93  1
e 86 94  1
e 86 95  1
e 86 96  1
e 86 97  1
e 86 98  1
e 86 99  1
e 86 100  1
e 86 101  1
e 87 88  1
e 87 89  1
e 87 96  1
e 87 97  1
e 87 98  1
e 87 99  1
e 87 100  1
e 87 101  1
e 87 102  1
e 87 103  1
e 87 104  1
e 88 89  1
e 88 96  1
e 88 97  1
e 88 98  1
e 88 99  1
e 88 100  1
e 88 101  1
e 88 102  1
e 88 103  1
e 88 104  1
e 89 96  1
e 89 97  1
e 89 98  1
e 89 99  1
e 89 100  1
e 89 101  1
e 89 102  1
e 89 103  1
e 89 104  1
e 90 91  1
e 90 92  1
e 90 93  1
e 90 94  1
e 90 95  1
e 90 99  1
e 90 100  1
e 90 101  1
e 90 102  1
e 90 103  1
e 90 104  1
e 91 92  1
e 91 93  1
e 91 94  1
e 91 95  1
e 91 99  1
e 91 100  1
e 91 101  1
e 91 102  1
e 91 103  1
e 91 104  1
e 92 93  1
e 92 94  1
e 92 95  1
e 92 99  1
e 92 100  1
e 92 101  1
e 92 102  1
e 92 103  1
e 92 104  1
e 93 94  1
e 93 95  1
e 93 105  1
e 93 106  1
e 93 107  1
e 93 108  1
e 93 109  1
e 93 110  1
e 93 114  1
e 93 115  1
e 93 116  1
e 94 95  1
e 94 105  1
e 94 106  1
e 94 107  1
e 94 108  1
e 94 109  1
e 94 110  1
e 94 114  1
e 94 115  1
e 94 116  1
e 95 105  1
e 95 106  1
e 95 107  1
e 95 108  1
e 95 109  1
e 95 110  1
e 95 114  1
e 95 115  1
e 95 116  1
e 96 97  1
e 96 98  1
e 96 105  1
e 96 106  1
e 96 107  1
e 96 108  1
e 96 109  1
e 96 110  1
e 96 111  1
e 96 112  1
e 96 113  1
e 97 98  1
e 97 105  1
e 97 106  1
e 97 107  1
e 97 108  1
e 97 109  1
e 97 110  1
e 97 111  1
e 97 112  1
e 97 113  1
e 98 105  1
e 98 106  1
e 98 107  1
e 98 108  1
e 98 109  1
e 98 110  1
e 98 111  1
e 98 112  1
e 98 113  1
e 99 100  1
e 99 101  1
e 99 108  1
e 99 109  1
e 99 110  1
e 99 111  1
e 99 112  1
e 99 113  1
e 99 114  1
e 99 115  1
e 99 116  1
e 100 101  1
e 100 108  1
e 100 109  1
e 100 110  1
e 100 111  1
e 100 112  1
e 100 113  1
e 100 114  1
e 100 115  1
e 100 116  1
e 101 108  1
e 101 109  1
e 101 110  1
e 101 111  1
e 101 112  1
e 101 113  1
e 101 114  1
e 101 115  1
e 101 116  1
e 102 103  1
e 102 104  1
e 102 105  1
e 102 106  1
e 102 107  1
e 102 111  1
e 102 112  1
e 102 113  1
e 102 114  1
e 102 115  1
e 102 116  1
e 103 104  1
e 103 105  1
e 103 106  1
e 103 107  1
e 103 111  1
e 103 112  1
e 103 113  1
e 103 114  1
e 103 115  1
e 103 116  1
e 104 105  1
e 104 106  1
e 104 107  1
e 104 111  1
e 104 112  1
e 104 113  1
e 104 114  1
e 104 115  1
e 104 116  1
e 105 106  1
e 105 107  1
e 105 117  1
e 105 118  1
e 105 119  1
e 105 120  1
e 105 121  1
e 105 122  1
e 105 126  1
e 105 127  1
e 105 128  1
e 106 107  1
e 106 117  1
e 106 118  1
e 106 119  1
e 106 120  1
e 106 121  1
e 106 122  1
e 106 126  1
e 106 127  1
e 106 128  1
e 107 117  1
e 107 118  1
e 107 119  1
e 107 120  1
e 107 121  1
e 107 122  1
e 107 126  1
e 107 127  1
e 107 128  1
e 108 109  1
e 108 110  1
e 108 117  1
e 108 118  1
e 108 119  1
e 108 120  1
e 108 121  1
e 108 122  1
e 108 123  1
e 108 124  1
e 108 125  1
e 109 110  1
e 109 117  1
e 109 118  1
e 109 119  1
e 109 120  1
e 109 121  1
e 109 122  1
e 109 123  1
e 109 124  1
e 109 125  1
e 110 117  1
e 110 118  1
e 110 119  1
e 110 120  1
e 110 121  1
e 110 122  1
e 110 123  1
e 110 124  1
e 110 125  1
e 111 112  1
e 111 113  1
e 111 120  1
e 111 121  1
e 111 122  1
e 111 123  1
e 111 124  1
e 111 125  1
e 111 126  1
e 111 127  1
e 111 128  1
e 112 113  1
e 112 120  1
e 112 121  1
e 112 122  1
e 112 123  1
e 112 124  1
e 112 125  1
e 112 126  1
e 112 127  1
e 112 128  1
e 113 120  1
e 113 121  1
e 113 122  1
e 113 123  1
e 113 124  1
e 113 125  1
e 113 126  1
e 113 127  1
e 113 128  1
e 114 115  1
e 114 116  1
e 114 117  1
e 114 118  1
e 114 119  1
e 114 123  1
e 114 124  1
e 114 125  1
e 114 126  1
e 114 127  1
e 114 128  1
e 115 116  1
e 115 117  1
e 115 118  1
e 115 119  1
e 115 123  1
e 115 124  1
e 115 125  1
e 115 126  1
e 115 127  1
e 115 128  1
e 116 117  1
e 116 118  1
e 116 119  1
e 116 123  1
e 116 124  1
e 116 125  1
e 116 126  1
e 116 127  1
e 116 128  1
e 117 118  1
e 117 119  1
e 117 129  1
e 117 130  1
e 117 131  1
e 117 132  1
e 117 133  1
e 117 134  1
e 117 138  1
e 117 139  1
e 117 140  1
e 118 119  1
e 118 129  1
e 118 130  1
e 118 131  1
e 118 132  1
e 118 133  1
e 118 134  1
e 118 138  1
e 118 139  1
e 118 140  1
e 119 129  1
e 119 130  1
e 119 131  1
e 119 132  1
e 119 133  1
e 119 134  1
e 119 138  1
e 119 139  1
e 119 140  1
e 120 121  1
e 120 122  1
e 120 129  1
e 120 130  1
e 120 131  1
e 120 132  1
e 120 133  1
e 120 134  1
e 120 135  1
e 120 136  1
e 120 137  1
e 121 122  1
e 121 129  1
e 121 130  1
e 121 131  1
e 121 132  1
e 121 133  1
e 121 134  1
e 121 135  1
e 121 136  1
e 121 137  1
e 122 129  1
e 122 130  1
e 122 131  1
e 122 132  1
e 122 133  1
e 122 134  1
e 122 135  1
e 122 136  1
e 122 137  1
e 123 124  1
e 123 125  1
e 123 132  1
e 123 133  1
e 123 134  1
e 123 135  1
e 123 136  1
e 123 137  1
e 123 138  1
e 123 139  1
e 123 140  1
e 124 125  1
e 124 132  1
e 124 133  1
e 124 134  1
e 124 135  1
e 124 136  1
e 124 137  1
e 124 138  1
e 124 139  1
e 124 140  1
e 125 132  1
e 125 133  1
e 125 134  1
e 125 135  1
e 125 136  1
e 125 137  1
e 125 138  1
e 125 139  1
e 125 140  1
e 126 127  1
e 126 128  1
e 126 135  1
e 126 136  1
e 126 137  1
e 126 138  1
e 126 139  1
e 126 140  1
e 126 141  1
e 126 142  1
e 126 143  1
e 127 128  1
e 127 135  1
e 127 136  1
e 127 137  1
e 127 138  1
e 127 139  1
e 127 140  1
e 127 141  1
e 127 142  1
e 127 143  1
e 128 135  1
e 128 136  1
e 128 137  1
e 128 138  1
e 128 139  1
e 128 140  1
e 128 141  1
e 128 142  1
e 128 143  1
e 129 130  1
e 129 131  1
e 129 132  1
e 129 135  1
e 129 137  1
e 129 141  1
e 129 142  1
e 129 143  1
e 129 144  1
e 129 145  1
e 129 146  1
e 129 150  1
e 129 151  1
e 129 152  1
e 130 131  1
e 130 141  1
e 130 142  1
e 130 143  1
e 130 144  1
e 130 145  1
e 130 146  1
e 130 150  1
e 130 151  1
e 130 152  1
e 131 135  1
e 131 137  1
e 131 140  1
e 131 141  1
e 131 142  1
e 131 143  1
e 131 144  1
e 131 145  1
e 131 146  1
e 131 150  1
e 131 151  1
e 131 152  1
e 132 133  1
e 132 134  1
e 132 138  1
e 132 140  1
e 132 141  1
e 132 142  1
e 132 143  1
e 132 144  1
e 132 145  1
e 132 146  1
e 132 147  1
e 132 148  1
e 132 149  1
e 133 134  1
e 133 141  1
e 133 142  1
e 133 143  1
e 133 144  1
e 133 145  1
e 133 146  1
e 133 147  1
e 133 148  1
e 133 149  1
e 134 137  1
e 134 138  1
e 134 140  1
e 134 141  1
e 134 142  1
e 134 143  1
e 134 144  1
e 134 145  1
e 134 146  1
e 134 147  1
e 134 148  1
e 134 149  1
e 135 136  1
e 135 137  1
e 135 138  1
e 135 144  1
e 135 145  1
e 135 146  1
e 135 147  1
e 135 148  1
e 135 149  1
e 135 150  1
e 135 151  1
e 135 152  1
e 136 137  1
e 136 144  1
e 136 145  1
e 136 146  1
e 136 147  1
e 136 148  1
e 136 149  1
e 136 150  1
e 136 151  1
e 136 152  1
e 137 144  1
e 137 145  1
e 137 146  1
e 137 147  1
e 137 148  1
e 137 149  1
e 137 150  1
e 137 151  1
e 137 152  1
e 138 139  1
e 138 140  1
e 138 141  1
e 138 142  1
e 138 143  1
e 138 147  1
e 138 148  1
e 138 149  1
e 138 150  1
e 138 151  1
e 138 152  1
e 139 140  1
e 139 141  1
e 139 142  1
e 139 143  1
e 139 147  1
e 139 148  1
e 139 149  1
e 139 150  1
e 139 151  1
e 139 152  1
e 140 141  1
e 140 142  1
e 140 143  1
e 140 147  1
e 140 148  1
e 140 149  1
e 140 150  1
e 140 151  1
e 140 152  1
e 141 142  1
e 141 143  1
e 141 144  1
e 142 143  1
e 143 152  1
e 144 145  1
e 144 146  1
e 145 146  1
e 146 149  1
e 147 148  1
e 147 149  1
e 147 150  1
e 148 149  1
e 150 151  1
e 150 152  1
e 151 152  1
